&BANDS
prefix='pw',filband='bn-bands',lsym=.true.
/
