&INPUTPP
prefix='pw',plot_num=0,filplot='density'
/
&PLOT
iflag=2,output_format=3,fileout='density.xsf',
e1(1)=2.0,e1(2)=0.0,e1(3)=0.0
e2(1)=0.0,e2(2)=2.0,e2(3)=0.0
x0(1)=0.0,x0(2)=0.0,x0(3)=0.0
nx=100,ny=100
/
