&BANDS
prefix='pw',filband='c-bands',lsym=.true.
/
