&INPUTPP
prefix='pw',plot_num=7,filplot='wf',kband=4,kpoint=7
/
&PLOT
iflag=3,output_format=5,fileout='wf-vb.xsf',
e1(1)=2.0,e1(2)=0.0,e1(3)=0.0
e2(1)=0.0,e2(2)=2.0,e2(3)=0.0
e3(1)=0.0,e3(2)=0.0,e3(3)=4.0
x0(1)=0.0,x0(2)=0.0,x0(3)=0.0
nx=20,ny=20,nz=20
/
